122 5
10 10 10 10 10 

0 0 0 0 0 0 1 2 
0 0 0 0 0 0 2 3 6 
3 0 0 0 0 2 3 12 8 4 
6 0 0 0 0 5 1 5 
5 0 0 0 0 3 2 9 7 
1 0 0 0 0 6 2 9 7 
1 0 0 0 0 8 2 11 10 
7 0 0 0 0 4 1 9 
8 0 0 0 0 5 1 13 
9 0 0 0 0 5 1 13 
6 0 0 0 0 2 1 13 
9 0 0 0 0 10 1 13 
0 0 0 0 0 0 2 14 26 
0 0 0 0 0 0 1 15 
4 1 0 0 0 0 2 18 16 
8 3 0 0 0 0 2 19 17 
1 9 0 0 0 0 3 24 21 20 
7 9 0 0 0 0 2 19 59 
2 5 0 0 0 0 2 24 20 
5 3 0 0 0 0 2 23 22 
5 5 0 0 0 0 2 23 22 
8 7 0 0 0 0 1 25 
1 3 0 0 0 0 1 25 
10 5 0 0 0 0 1 25 
0 0 0 0 0 0 1 38 
0 0 0 0 0 0 4 27 30 31 32 
10 0 0 1 0 0 2 35 28 
4 0 0 7 0 0 1 29 
3 0 0 4 0 0 2 36 33 
2 0 0 4 0 0 2 35 33 
9 0 0 3 0 0 2 35 33 
10 0 0 3 0 0 2 36 35 
8 0 0 5 0 0 1 34 
9 0 0 5 0 0 1 37 
10 0 0 8 0 0 2 37 44 
9 0 0 10 0 0 1 37 
0 0 0 0 0 0 1 38 
0 0 0 0 0 0 5 39 51 63 75 87 
0 0 0 0 0 0 2 40 41 
8 0 0 0 1 0 2 43 42 
6 0 0 0 5 0 2 45 43 
10 0 0 0 4 0 2 45 44 
9 0 0 0 4 0 1 44 
6 0 0 0 8 0 3 47 46 68 
1 0 0 0 5 0 2 47 46 
4 0 0 0 5 0 1 49 
7 0 0 0 5 0 1 48 
2 0 0 0 8 0 1 50 
10 0 0 0 5 0 1 50 
0 0 0 0 0 0 1 99 
0 0 0 0 0 0 2 52 53 
7 0 0 0 1 0 3 58 56 54 
4 0 0 0 10 0 3 60 58 55 
3 0 0 0 4 0 3 60 55 77 
4 0 0 0 7 0 2 61 57 
9 0 0 0 3 0 2 60 57 
4 0 0 0 6 0 1 59 
4 0 0 0 2 0 1 59 
2 0 0 0 4 0 1 62 
2 0 0 0 8 0 1 62 
8 0 0 0 5 0 1 62 
0 0 0 0 0 0 1 99 
0 0 0 0 0 0 3 64 67 69 
5 0 1 0 0 0 2 68 65 
8 0 5 0 0 0 1 66 
8 0 1 0 0 0 3 73 72 70 
9 0 5 0 0 0 1 68 
8 0 8 0 0 0 2 72 70 
10 0 5 0 0 0 1 70 
1 0 6 0 0 0 1 71 
10 0 9 0 0 0 1 74 
5 0 3 0 0 0 1 74 
8 0 7 0 0 0 1 74 
0 0 0 0 0 0 1 99 
0 0 0 0 0 0 2 76 78 
10 0 0 0 1 0 1 77 
5 0 0 0 3 0 2 80 79 
2 0 0 0 4 0 2 81 79 
7 0 0 0 6 0 2 83 82 
6 0 0 0 5 0 2 83 82 
8 0 0 0 7 0 2 83 82 
7 0 0 0 5 0 1 85 
3 0 0 0 6 0 1 84 
8 0 0 0 10 0 1 86 
5 0 0 0 3 0 1 86 
0 0 0 0 0 0 1 99 
0 0 0 0 0 0 4 88 89 92 94 
3 0 0 0 0 1 3 97 96 90 
10 0 0 0 0 5 2 97 91 
9 0 0 0 0 4 1 91 
8 0 0 0 0 5 1 93 
3 0 0 0 0 5 1 93 
5 0 0 0 0 7 1 95 
9 0 0 0 0 6 1 96 
4 0 0 0 0 2 1 98 
4 0 0 0 0 8 1 98 
8 0 0 0 0 7 1 98 
0 0 0 0 0 0 1 99 
0 0 0 0 0 0 3 100 104 109 
7 0 1 0 0 0 2 108 101 
9 0 2 0 0 0 1 102 
4 0 6 0 0 0 1 103 
3 0 8 0 0 0 2 106 105 
2 0 4 0 0 0 2 107 105 
1 0 5 0 0 0 1 110 
4 0 9 0 0 0 1 110 
9 0 3 0 0 0 1 110 
1 0 9 0 0 0 1 110 
4 0 3 0 0 0 1 110 
0 0 0 0 0 0 1 111 
0 0 0 0 0 0 1 112 
3 0 0 1 0 0 3 115 114 113 
2 0 0 4 0 0 2 117 116 
6 0 0 3 0 0 1 116 
1 0 0 5 0 0 1 116 
1 0 0 7 0 0 2 119 118 
7 0 0 7 0 0 2 119 118 
8 0 0 9 0 0 2 121 120 
9 0 0 5 0 0 2 121 120 
8 0 0 6 0 0 1 122 
7 0 0 3 0 0 1 122 
0 0 0 0 0 0 0 
